
Gurobi 7.0.1 (win64) logging started 01/28/18 00:28:34

Set parameter TimeLimit to value 3600
Set parameter Threads to value 4

Gurobi Optimizer version 7.0.1 build v7.0.1rc0 (win64)
Copyright (c) 2016, Gurobi Optimization, Inc.

Read LP format model from file waterstop_5_180114_2.lp
Reading time = 0.23 seconds
Objective: 47826 rows, 16866 columns, 185910 nonzeros
Optimize a model with 47826 rows, 16866 columns and 185910 nonzeros
Variable types: 108 continuous, 16758 integer (0 binary)
Coefficient statistics:
  Matrix range     [3e-01, 1e+02]
  Objective range  [1e+00, 1e+00]
  Bounds range     [1e+00, 1e+00]
  RHS range        [1e+00, 1e+02]
Presolve removed 21858 rows and 3450 columns
Presolve time: 1.23s
Presolved: 25968 rows, 13416 columns, 104442 nonzeros
Variable types: 60 continuous, 13356 integer (13356 binary)

Root relaxation: objective 0.000000e+00, 4768 iterations, 1.25 seconds
Total elapsed time = 5.36s

    Nodes    |    Current Node    |     Objective Bounds      |     Work
 Expl Unexpl |  Obj  Depth IntInf | Incumbent    BestBd   Gap | It/Node Time

     0     0    0.00000    0   90          -    0.00000      -     -    5s
H    0     0                     139.0000000    0.00000   100%     -   28s
     0     0    0.00000    0   88  139.00000    0.00000   100%     -   28s
H    0     0                      39.9090909    0.00000   100%     -   29s
     0     0    0.00000    0   83   39.90909    0.00000   100%     -   30s
     0     0    0.00000    0  107   39.90909    0.00000   100%     -   30s
H    0     0                      29.0606061    0.00000   100%     -   31s
     0     0    0.00000    0   94   29.06061    0.00000   100%     -   31s
     0     0    0.00000    0   57   29.06061    0.00000   100%     -   32s
     0     0    0.00000    0   61   29.06061    0.00000   100%     -   32s
     0     0    0.00000    0   45   29.06061    0.00000   100%     -   34s
H    0     0                      28.1515152    0.00000   100%     -   34s
     0     0    0.00000    0   44   28.15152    0.00000   100%     -   34s
     0     0    0.00000    0   44   28.15152    0.00000   100%     -   35s
     0     0    0.00000    0   46   28.15152    0.00000   100%     -   35s
     0     0    0.00000    0   60   28.15152    0.00000   100%     -   38s
     0     0    0.00000    0   60   28.15152    0.00000   100%     -   38s
H    0     0                      22.2121212    0.00000   100%     -   41s
H    0     0                      21.6060606    0.00000   100%     -   41s
     0     0    0.00000    0   29   21.60606    0.00000   100%     -   41s
     0     0    0.00000    0   28   21.60606    0.00000   100%     -   41s
H    0     0                      17.5757576    0.00000   100%     -   42s
     0     0    0.00000    0   22   17.57576    0.00000   100%     -   42s
H    0     0                      17.1515152    0.00000   100%     -   43s
     0     0    0.00000    0   23   17.15152    0.00000   100%     -   43s
     0     0    0.00000    0   38   17.15152    0.00000   100%     -   46s
     0     0    0.00000    0   28   17.15152    0.00000   100%     -   46s
     0     2    0.00000    0   28   17.15152    0.00000   100%     -   47s
    19    15    8.14260    5  145   17.15152    0.00000   100%   646   50s
H   30    16                       9.0000000    0.00000   100%   441   53s
    62    19    6.03030   14   73    9.00000    0.00000   100%   411   56s
H   97    16                       6.0303030    0.00000   100%   381   59s

Cutting planes:
  Implied bound: 24
  MIR: 4
  Zero half: 2

Explored 112 nodes (124116 simplex iterations) in 59.94 seconds
Thread count was 4 (of 20 available processors)

Solution count 10: 6.0303 9 17.1515 ... 139
Pool objective bound 6.0303

Optimal solution found (tolerance 1.00e-04)
Best objective 6.030303030303e+00, best bound 6.030303030303e+00, gap 0.0000%

Wrote result file 'waterstop_5_180114_2.sol'

